
#(C) 2019 by FIZ Karlsruhe - Leibniz Institute for Information Infrastructure.  All rights reserved.
data_191081-ICSD
_database_code_ICSD 191081
_audit_creation_date 2014-08-01
_chemical_name_systematic 'Chromium hydride (1/1)'
_chemical_formula_structural 'Cr H'
_chemical_formula_sum 'H1 Cr1'
_chemical_name_structure_type Nickeline-NiAs
_exptl_crystal_density_diffrn 6.21
_publ_section_title 'First principles study of Cr H and Cr M2 H'
loop_
_citation_id
_citation_journal_full
_citation_year
_citation_journal_volume
_citation_page_first
_citation_page_last
_citation_journal_id_ASTM
primary 'AIP Conference Proceedings' 2013 1536 921 922 APCPCS
loop_
_publ_author_name
'Kanagaprabha, S.'
'Santhosh, M.'
'Rajeswarapalanichamy, R.'
'Iyakutti, K.'
_cell_length_a 2.716
_cell_length_b 2.716
_cell_length_c 4.435
_cell_angle_alpha 90.
_cell_angle_beta 90.
_cell_angle_gamma 120.
_cell_volume 28.33
_cell_formula_units_Z 2
_symmetry_space_group_name_H-M 'P 63/m m c'
_symmetry_Int_Tables_number 194
loop_
_symmetry_equiv_pos_site_id
_symmetry_equiv_pos_as_xyz
1 'x, x-y, -z+1/2'
2 '-x+y, y, -z+1/2'
3 '-y, -x, -z+1/2'
4 '-x+y, -x, -z+1/2'
5 '-y, x-y, -z+1/2'
6 'x, y, -z+1/2'
7 '-x, -x+y, z+1/2'
8 'x-y, -y, z+1/2'
9 'y, x, z+1/2'
10 'x-y, x, z+1/2'
11 'y, -x+y, z+1/2'
12 '-x, -y, z+1/2'
13 '-x, -x+y, -z'
14 'x-y, -y, -z'
15 'y, x, -z'
16 'x-y, x, -z'
17 'y, -x+y, -z'
18 '-x, -y, -z'
19 'x, x-y, z'
20 '-x+y, y, z'
21 '-y, -x, z'
22 '-x+y, -x, z'
23 '-y, x-y, z'
24 'x, y, z'
loop_
_atom_type_symbol
_atom_type_oxidation_number
Cr0+ 0
H0+ 0
loop_
_atom_site_label
_atom_site_type_symbol
_atom_site_symmetry_multiplicity
_atom_site_Wyckoff_symbol
_atom_site_fract_x
_atom_site_fract_y
_atom_site_fract_z
_atom_site_B_iso_or_equiv
_atom_site_occupancy
_atom_site_attached_hydrogens
Cr1 Cr0+ 2 a 0 0 0 . 1. 0
H1 H0+ 2 c 0.3333 0.6667 0.25 . 1. 0
#End of TTdata_191081-ICSD