
#(C) 2019 by FIZ Karlsruhe - Leibniz Institute for Information Infrastructure, and the U.S. Secretary of
#Commerce on behalf of the United States.  All rights reserved.
data_670214-ICSD
_database_code_ICSD 670214
_audit_creation_date 2017-02-01
_chemical_name_systematic 'Scandium Hydride (1/2)'
_chemical_formula_structural 'Sc H2'
_chemical_formula_sum 'H2 Sc1'
_chemical_name_structure_type SmNiSb
_exptl_crystal_density_diffrn 7.05
_cell_measurement_pressure 300000000.
_publ_section_title

;
Theoretical study of phase separation of scandium hydrides under high pressure
;
loop_
_citation_id
_citation_journal_full
_citation_year
_citation_journal_volume
_citation_page_first
_citation_page_last
_citation_journal_id_ASTM
primary 'Journal of Physical Chemistry C' 2015 119 5614 5625 JPCCCK
loop_
_publ_author_name
'Ye, Xiaoqiu'
'Hoffmann, Roald'
'Ashcroft, N.W.'
_cell_length_a 2.411
_cell_length_b 2.411
_cell_length_c 2.198
_cell_angle_alpha 90
_cell_angle_beta 90
_cell_angle_gamma 120
_cell_volume 11.06
_cell_formula_units_Z 1
_symmetry_space_group_name_H-M 'P 6/m m m'
_symmetry_Int_Tables_number 191
loop_
_symmetry_equiv_pos_site_id
_symmetry_equiv_pos_as_xyz
1 '-x, -x+y, -z'
2 'x-y, -y, -z'
3 'y, x, -z'
4 '-x+y, -x, -z'
5 '-y, x-y, -z'
6 'x, y, -z'
7 'x, x-y, -z'
8 '-x+y, y, -z'
9 '-y, -x, -z'
10 'x-y, x, -z'
11 'y, -x+y, -z'
12 '-x, -y, -z'
13 'x, x-y, z'
14 '-x+y, y, z'
15 '-y, -x, z'
16 'x-y, x, z'
17 'y, -x+y, z'
18 '-x, -y, z'
19 '-x, -x+y, z'
20 'x-y, -y, z'
21 'y, x, z'
22 '-x+y, -x, z'
23 '-y, x-y, z'
24 'x, y, z'
loop_
_atom_type_symbol
_atom_type_oxidation_number
H0+ 0
Sc0+ 0
loop_
_atom_site_label
_atom_site_type_symbol
_atom_site_symmetry_multiplicity
_atom_site_Wyckoff_symbol
_atom_site_fract_x
_atom_site_fract_y
_atom_site_fract_z
_atom_site_B_iso_or_equiv
_atom_site_occupancy
_atom_site_attached_hydrogens
H1 H0+ 2 d 0.333333 0.666667 0.5 1. 1. 0
Sc1 Sc0+ 1 a 0. 0. 0. 1. 1. 0
#End of TTdata_670214-ICSD